NAME : amz2022.108677_108677.tour
COMMENT : Cost = 108677_108677
COMMENT : Found by LKH-AMZ [Keld Helsgaun] Sun May 11 13:38:17 2025
COMMENT : TW viol.: 0 #: 0
TYPE : TOUR
DIMENSION : 148
TOUR_SECTION
36
78
129
111
122
82
65
116
35
49
20
118
121
15
133
146
21
130
103
135
76
138
84
68
66
97
63
59
80
87
12
37
60
141
53
25
67
79
2
136
55
34
61
137
132
48
91
96
124
131
90
77
4
22
93
72
42
57
11
45
23
119
26
38
19
117
98
3
7
39
44
18
41
5
32
102
147
17
139
9
62
56
14
100
86
143
144
104
50
69
145
31
83
1
33
126
105
127
43
24
142
51
108
27
94
148
112
110
107
81
128
40
101
6
74
114
8
88
28
13
16
85
109
46
134
73
54
70
71
75
29
120
115
89
106
47
30
140
64
125
10
92
123
99
58
52
95
113
-1
EOF
